45 45
18 12
20 17
17 2
17 30
11 23
4 35
16 39
1 11
22 38
21 18
6 6
9 19
4 15
7 32
12 29
2 22
15 34
5 28
11 44
8 16
20 8
21 14
14 13
7 31
19 20
15 5
8 1
5 43
1 40
9 9
10 25
10 4
3 41
22 26
12 42
13 24
3 3
18 27
16 10
14 36
6 21
13 45
19 7
2 37
1 33
